language Essence 1.3

letting blksize_delta be function(1 --> 2, 2 --> 2)
letting maxcars be function(1 --> 6, 2 --> 5)
letting n_cars be 139
letting n_classes be 2
letting n_options be 2
letting quantity be function(1 --> 70, 2 --> 69)
letting usage be relation((1, 1), (2, 2))
$ Visualisation for usage
$ 1 1
$ 2 2

